
Gurobi 9.0.2 (win64) logging started Sun Dec 27 07:00:34 2020

Changed value of parameter logfile to result\SunCable-20201227T0415\scenario_2030_p20_cab2000.log
   Prev:   Default: 
Gurobi Optimizer version 9.0.2 build v9.0.2rc0 (win64)
Optimize a model with 1243974 rows, 762167 columns and 3491691 nonzeros
Model fingerprint: 0xbab8bcf0
Coefficient statistics:
  Matrix range     [1e-07, 3e+05]
  Objective range  [1e+00, 1e+00]
  Bounds range     [0e+00, 0e+00]
  RHS range        [2e-05, 3e+08]
Warning: Model contains large matrix coefficient range
         Consider reformulating model or setting NumericFocus parameter
         to avoid numerical issues.

Concurrent LP optimizer: primal simplex, dual simplex, and barrier
Showing barrier log only...

Presolve removed 1068997 rows and 595935 columns
Presolve time: 2.63s
Presolved: 174977 rows, 280098 columns, 652320 nonzeros

Ordering time: 0.08s

Barrier statistics:
 Dense cols : 5
 AA' NZ     : 6.422e+05
 Factor NZ  : 3.150e+06 (roughly 200 MBytes of memory)
 Factor Ops : 7.040e+07 (less than 1 second per iteration)
 Threads    : 30

                  Objective                Residual
Iter       Primal          Dual         Primal    Dual     Compl     Time
   0  -2.36044364e+16 -1.07293926e+15  6.88e+06 2.59e+04  2.83e+12     3s
   1  -5.15576686e+15 -1.08581590e+15  1.50e+06 4.54e+06  8.06e+11     3s
   2  -1.56063603e+15 -1.02959070e+15  4.56e+05 1.20e+06  2.42e+11     4s
   3  -3.70280560e+14 -9.29753545e+14  1.09e+05 1.63e+05  5.28e+10     4s
   4  -8.73052425e+13 -5.80821107e+14  2.44e+04 4.07e+04  1.26e+10     4s
   5  -2.73340263e+13 -3.52359860e+14  7.66e+03 1.64e+04  4.43e+09     4s
   6  -9.46133228e+12 -1.85963467e+14  2.78e+03 3.37e+03  1.44e+09     5s
   7  -1.39802752e+12 -9.17194857e+13  5.10e+02 3.34e+02  3.03e+08     5s
   8   3.21877314e+11 -1.65024349e+13  1.19e+01 7.78e+00  3.13e+07     5s
   9   1.33329272e+11 -2.17424066e+12  1.38e+00 6.96e-01  4.14e+06     5s
  10   6.87128974e+10 -1.16956599e+12  5.75e-01 2.25e-01  2.21e+06     5s
  11   2.96756373e+10 -3.48088702e+11  1.71e-01 5.59e-09  6.71e+05     6s
  12   1.43764298e+10 -2.07461304e+11  5.50e-02 5.59e-09  3.92e+05     6s
  13   1.17175928e+10 -1.41418182e+11  3.64e-02 5.59e-09  2.70e+05     6s
  14   9.86841672e+09 -2.21893293e+10  2.08e-02 9.31e-09  5.70e+04     7s
  15   7.72753601e+09 -2.27378277e+09  8.32e-03 7.45e-09  1.78e+04     7s
  16   6.90056169e+09  2.86376950e+09  3.95e-03 5.59e-09  7.20e+03     7s
  17   6.47526370e+09  4.82586652e+09  1.92e-03 5.59e-09  2.94e+03     7s
  18   6.31949531e+09  5.56984576e+09  1.21e-03 3.73e-09  1.34e+03     7s
  19   6.23526508e+09  5.70458394e+09  8.31e-04 2.79e-09  9.47e+02     8s
  20   6.18913462e+09  5.84898202e+09  6.50e-04 2.79e-09  6.08e+02     8s
  21   6.16079645e+09  5.90346782e+09  5.10e-04 1.86e-09  4.60e+02     8s
  22   6.13661705e+09  5.94293384e+09  3.89e-04 1.86e-09  3.46e+02     8s
  23   6.11039498e+09  6.00279190e+09  2.38e-04 1.86e-09  1.92e+02     9s
  24   6.09665921e+09  6.02855706e+09  1.61e-04 1.86e-09  1.22e+02     9s
  25   6.08469181e+09  6.03696025e+09  9.06e-05 1.86e-09  8.50e+01     9s
  26   6.07803926e+09  6.04619796e+09  5.25e-05 1.86e-09  5.66e+01    10s
  27   6.07355967e+09  6.05174072e+09  2.76e-05 1.86e-09  3.87e+01    10s
  28   6.07141106e+09  6.06043594e+09  1.59e-05 1.86e-09  1.95e+01    10s
  29   6.06998781e+09  6.06322715e+09  8.23e-06 1.86e-09  1.20e+01    10s
  30   6.06935282e+09  6.06440492e+09  4.79e-06 1.86e-09  8.76e+00    10s
  31   6.06887630e+09  6.06579056e+09  2.30e-06 1.86e-09  5.45e+00    11s
  32   6.06857871e+09  6.06744179e+09  8.37e-07 1.86e-09  2.01e+00    11s
  33   6.06848292e+09  6.06811666e+09  3.58e-07 1.86e-09  6.48e-01    11s
  34   6.06843388e+09  6.06825689e+09  4.98e-07 1.86e-09  3.13e-01    11s
  35   6.06841072e+09  6.06838170e+09  2.99e-07 2.79e-09  5.13e-02    11s
  36   6.06840351e+09  6.06840190e+09  1.67e-07 2.52e-09  2.83e-03    12s
  37   6.06840330e+09  6.06840325e+09  1.67e-09 2.79e-09  8.44e-05    12s
  38   6.06840329e+09  6.06840329e+09  1.46e-10 5.00e-09  8.44e-08    12s
  39   6.06840329e+09  6.06840329e+09  1.32e-07 7.01e-09  8.44e-11    13s

Barrier solved model in 39 iterations and 12.55 seconds
Optimal objective 6.06840329e+09

Crossover log...

   19383 DPushes remaining with DInf 0.0000000e+00                13s
       0 DPushes remaining with DInf 0.0000000e+00                13s
Warning: Markowitz tolerance tightened to 0.5

   79170 PPushes remaining with PInf 0.0000000e+00                13s
   27736 PPushes remaining with PInf 0.0000000e+00                15s
       0 PPushes remaining with PInf 0.0000000e+00                18s

  Push phase complete: Pinf 0.0000000e+00, Dinf 1.2114756e-08     18s

Iteration    Objective       Primal Inf.    Dual Inf.      Time
   80950    6.0684033e+09   0.000000e+00   0.000000e+00     19s

Solved with barrier
Solved in 80950 iterations and 19.55 seconds
Optimal objective  6.068403292e+09
Warning: unscaled primal violation = 0.000856069 and residual = 0.000856069
